          17
          10
           1          10           1
           2          10           1
           3          10           1
           4           3           5
           5           3           5
           6           3           9
           7           3           9
           8           3           9
           9           1           6
          10           1           6
          11           1           6
          12           8           3
          13           8           3
          14           8           3
          15           1           4
          16           3           7
          17           3           7
